# Solution for model r10_t18_m7_9
# Finished Task: 10 / 18
# Makespan: 701.0, Total Distance: 130.0, Total Time: 1.9329
# R O S F
0 0 24 178.0 178.0
1 1 -1 178.0 178.0
2 2 17 155.0 155.0
3 3 23 145.0 145.0
4 4 -1 145.0 145.0
5 5 -1 118.0 118.0
6 6 12 183.0 183.0
7 7 27 111.0 111.0
8 8 -1 177.0 177.0
9 9 -1 188.0 188.0
10 -1 -1 803.0 825.0
11 -1 -1 822.0 855.0
12 6 13 555.0 580.0
13 6 16 615.0 643.0
14 -1 -1 672.0 701.0
15 -1 -1 740.0 779.0
16 6 -1 661.0 689.0
17 2 -1 473.0 512.0
18 -1 -1 643.0 672.0
19 -1 -1 779.0 803.0
20 -1 -1 701.0 740.0
21 -1 -1 825.0 855.0
22 7 25 580.0 615.0
23 3 26 532.0 555.0
24 0 -1 319.0 354.0
25 7 -1 669.0 701.0
26 3 -1 579.0 612.0
27 7 22 365.0 397.0
